************************************************************************
file with basedata            : mm39_.bas
initial value random generator: 1046882282
************************************************************************
projects                      :  1
jobs (incl. supersource/sink ):  12
horizon                       :  84
RESOURCES
  - renewable                 :  2   R
  - nonrenewable              :  2   N
  - doubly constrained        :  0   D
************************************************************************
PROJECT INFORMATION:
pronr.  #jobs rel.date duedate tardcost  MPM-Time
    1     10      0       17        9       17
************************************************************************
PRECEDENCE RELATIONS:
jobnr.    #modes  #successors   successors
   0        1          3           1   2   3
   1        3          2           4   5
   2        3          3           4   6   7
   3        3          2           9  10
   4        3          1          10
   5        3          1           6
   6        3          2           8   9
   7        3          1          10
   8        3          1          11
   9        3          1          11
  10        3          1          11
  11        1          0        
************************************************************************
REQUESTS/DURATIONS:
jobnr. mode duration  R 1  R 2  R 3  R 4  E(W 1)  E(W 2)
------------------------------------------------------------------------
  0      1     0       0    0    0    0     0       0
  1      1     5       5    6    9    6    55      75
  2      1     9       7    8    5    7    135      108
  3      1     2       6    3    8    8    18      32
  4      1     2       4    6    7    6    20      26
  5      1     2       6   10    6    9    32      30
  6      1     1       3    6    8    3     9      11
  7      1     2       6    9    8    9    30      34
  8      1     7       8    4    4    8    84      84
  9      1     4       8    7    8    8    60      64
 10      1     1       6   10    5    4    16       9
 11      1     0       0    0    0    0     0       0
************************************************************************
RESOURCEAVAILABILITIES:
  R 1  R 2
   24   127
************************************************************************
RESOURCE LIMITS:
jobnr.  l(R 1)  u(R 1)  l(R 2)  u(R 2)
------------------------------------------------------------------------
  0        0       0       0       0
  1        6      11       8      15
  2        8      15       7      12
  3        5       9       8      16
  4        5      10       7      13
  5        8      16       8      15
  6        5       9       6      11
  7        8      15       9      17
  8        6      12       6      12
  9        8      15       8      16
 10        8      16       5       9
 11        0       0       0       0
************************************************************************
SCENARIOS:
------------------------------------------------------------------------
RESOURCE k = 1
s = 1: (0, 43, 156, 12, 14, 41, 10, 38, 80, 48, 22, 0)
s = 2: (0, 48, 132, 11, 25, 36, 14, 42, 49, 79, 10, 0)
s = 3: (0, 79, 91, 21, 13, 48, 11, 23, 118, 47, 14, 0)
s = 4: (0, 37, 217, 19, 16, 28, 7, 44, 83, 59, 11, 0)
s = 5: (0, 47, 113, 24, 18, 45, 13, 29, 90, 73, 14, 0)
s = 6: (0, 39, 73, 13, 24, 29, 8, 23, 89, 85, 14, 0)
s = 7: (0, 48, 111, 22, 35, 32, 9, 31, 78, 57, 13, 0)
s = 8: (0, 33, 125, 19, 16, 26, 12, 21, 46, 87, 18, 0)
s = 9: (0, 88, 114, 23, 20, 46, 9, 29, 48, 47, 18, 0)
s = 10: (0, 31, 195, 14, 15, 27, 7, 26, 160, 63, 16, 0)
s = 11: (0, 48, 143, 13, 13, 33, 16, 35, 75, 70, 13, 0)
s = 12: (0, 40, 166, 24, 22, 32, 12, 33, 53, 79, 19, 0)
s = 13: (0, 38, 112, 19, 22, 27, 14, 29, 65, 50, 17, 0)
s = 14: (0, 49, 122, 13, 25, 32, 6, 26, 47, 71, 25, 0)
s = 15: (0, 77, 118, 11, 12, 58, 14, 49, 146, 60, 11, 0)
s = 16: (0, 63, 156, 23, 24, 39, 6, 35, 148, 53, 11, 0)
s = 17: (0, 77, 139, 19, 25, 28, 11, 30, 54, 51, 10, 0)
s = 18: (0, 61, 113, 11, 13, 56, 11, 39, 130, 93, 24, 0)
s = 19: (0, 70, 165, 24, 28, 22, 12, 20, 71, 69, 14, 0)
s = 20: (0, 73, 131, 26, 18, 28, 10, 34, 49, 63, 10, 0)
s = 21: (0, 72, 69, 11, 14, 39, 10, 30, 63, 74, 11, 0)
s = 22: (0, 49, 109, 21, 33, 27, 13, 32, 99, 49, 17, 0)
s = 23: (0, 57, 113, 24, 30, 24, 11, 36, 82, 92, 16, 0)
s = 24: (0, 65, 95, 16, 21, 36, 15, 32, 54, 54, 16, 0)
s = 25: (0, 70, 114, 23, 25, 35, 7, 21, 69, 64, 14, 0)
s = 26: (0, 59, 92, 17, 33, 24, 11, 42, 66, 46, 12, 0)
s = 27: (0, 82, 193, 14, 15, 22, 7, 32, 72, 70, 9, 0)
s = 28: (0, 31, 104, 11, 23, 48, 7, 27, 75, 52, 18, 0)
s = 29: (0, 69, 248, 13, 23, 31, 10, 30, 59, 37, 18, 0)
s = 30: (0, 69, 139, 14, 27, 20, 8, 32, 75, 90, 17, 0)
s = 31: (0, 49, 97, 22, 22, 48, 8, 27, 70, 45, 14, 0)
s = 32: (0, 95, 92, 12, 23, 36, 6, 38, 50, 61, 12, 0)
s = 33: (0, 57, 114, 22, 22, 36, 9, 31, 62, 46, 18, 0)
s = 34: (0, 63, 71, 22, 19, 20, 7, 18, 94, 35, 9, 0)
s = 35: (0, 45, 92, 23, 18, 32, 10, 31, 75, 84, 30, 0)
s = 36: (0, 44, 183, 14, 20, 31, 17, 30, 62, 53, 17, 0)
s = 37: (0, 55, 216, 14, 16, 29, 8, 23, 78, 51, 10, 0)
s = 38: (0, 56, 115, 15, 17, 33, 15, 27, 59, 43, 24, 0)
s = 39: (0, 50, 161, 20, 26, 53, 11, 31, 75, 63, 17, 0)
s = 40: (0, 31, 175, 15, 20, 40, 13, 28, 101, 73, 17, 0)
s = 41: (0, 45, 83, 28, 19, 25, 7, 34, 72, 51, 26, 0)
s = 42: (0, 67, 204, 19, 24, 17, 7, 30, 67, 58, 25, 0)
s = 43: (0, 40, 93, 11, 21, 23, 12, 18, 117, 54, 17, 0)
s = 44: (0, 76, 80, 21, 12, 36, 14, 20, 80, 81, 15, 0)
s = 45: (0, 75, 119, 16, 21, 40, 7, 30, 66, 51, 14, 0)
s = 46: (0, 39, 115, 16, 17, 23, 12, 22, 125, 115, 15, 0)
s = 47: (0, 81, 163, 19, 30, 26, 14, 26, 92, 49, 14, 0)
s = 48: (0, 81, 183, 15, 22, 51, 10, 28, 57, 64, 16, 0)
s = 49: (0, 49, 144, 25, 23, 36, 12, 30, 82, 45, 19, 0)
s = 50: (0, 63, 83, 12, 25, 21, 12, 30, 103, 75, 14, 0)
s = 51: (0, 52, 154, 22, 26, 33, 12, 21, 72, 47, 23, 0)
s = 52: (0, 42, 102, 13, 26, 34, 11, 32, 66, 115, 17, 0)
s = 53: (0, 68, 144, 26, 16, 25, 6, 31, 60, 75, 12, 0)
s = 54: (0, 37, 121, 12, 17, 17, 7, 17, 97, 50, 18, 0)
s = 55: (0, 59, 74, 14, 30, 24, 6, 38, 61, 66, 10, 0)
s = 56: (0, 64, 150, 26, 25, 36, 10, 19, 105, 65, 30, 0)
s = 57: (0, 36, 83, 18, 13, 24, 7, 32, 118, 72, 10, 0)
s = 58: (0, 40, 151, 15, 17, 24, 10, 33, 67, 69, 15, 0)
s = 59: (0, 50, 177, 19, 12, 47, 7, 19, 75, 58, 12, 0)
s = 60: (0, 50, 87, 16, 19, 28, 7, 34, 54, 72, 18, 0)
s = 61: (0, 84, 97, 17, 22, 40, 7, 32, 49, 59, 22, 0)
s = 62: (0, 61, 184, 16, 19, 31, 7, 24, 129, 70, 13, 0)
s = 63: (0, 56, 105, 19, 13, 31, 7, 22, 89, 54, 11, 0)
s = 64: (0, 61, 95, 17, 18, 39, 12, 28, 92, 81, 21, 0)
s = 65: (0, 56, 144, 23, 21, 24, 13, 34, 68, 54, 19, 0)
s = 66: (0, 71, 158, 17, 15, 41, 7, 19, 73, 43, 17, 0)
s = 67: (0, 62, 126, 20, 15, 22, 11, 49, 69, 48, 22, 0)
s = 68: (0, 45, 159, 30, 15, 43, 8, 30, 117, 93, 15, 0)
s = 69: (0, 72, 153, 24, 16, 42, 8, 22, 87, 72, 20, 0)
s = 70: (0, 41, 114, 17, 23, 42, 12, 26, 133, 58, 17, 0)
s = 71: (0, 37, 230, 21, 14, 21, 8, 43, 59, 42, 25, 0)
s = 72: (0, 60, 101, 34, 36, 23, 10, 26, 92, 33, 27, 0)
s = 73: (0, 34, 112, 15, 16, 25, 8, 20, 76, 78, 11, 0)
s = 74: (0, 77, 141, 12, 15, 32, 11, 22, 107, 42, 27, 0)
s = 75: (0, 45, 84, 23, 14, 29, 11, 26, 65, 77, 18, 0)
s = 76: (0, 88, 137, 28, 23, 39, 9, 41, 99, 57, 18, 0)
s = 77: (0, 41, 80, 29, 19, 21, 7, 36, 71, 62, 11, 0)
s = 78: (0, 46, 180, 17, 18, 44, 6, 39, 91, 81, 20, 0)
s = 79: (0, 59, 122, 22, 15, 43, 8, 19, 66, 70, 26, 0)
s = 80: (0, 60, 133, 13, 27, 46, 10, 23, 129, 51, 12, 0)
s = 81: (0, 58, 109, 11, 21, 30, 9, 25, 48, 71, 14, 0)
s = 82: (0, 62, 94, 17, 20, 43, 6, 26, 88, 66, 22, 0)
s = 83: (0, 40, 145, 27, 22, 24, 9, 28, 116, 79, 14, 0)
s = 84: (0, 64, 101, 17, 14, 41, 8, 43, 98, 92, 13, 0)
s = 85: (0, 41, 191, 11, 16, 36, 9, 24, 66, 40, 25, 0)
s = 86: (0, 42, 87, 12, 29, 35, 7, 21, 82, 59, 12, 0)
s = 87: (0, 63, 129, 24, 11, 47, 8, 26, 103, 46, 14, 0)
s = 88: (0, 35, 136, 18, 16, 37, 12, 36, 52, 41, 18, 0)
s = 89: (0, 49, 175, 17, 18, 56, 10, 26, 109, 54, 14, 0)
s = 90: (0, 43, 159, 15, 30, 39, 8, 37, 51, 57, 21, 0)
s = 91: (0, 62, 147, 17, 17, 50, 14, 35, 66, 40, 15, 0)
s = 92: (0, 55, 180, 27, 28, 24, 9, 18, 79, 33, 16, 0)
s = 93: (0, 49, 181, 12, 21, 25, 6, 30, 100, 73, 13, 0)
s = 94: (0, 55, 139, 24, 20, 37, 8, 19, 82, 72, 11, 0)
s = 95: (0, 38, 154, 22, 16, 21, 11, 34, 103, 43, 24, 0)
s = 96: (0, 61, 164, 21, 37, 29, 7, 42, 60, 49, 11, 0)
s = 97: (0, 64, 171, 23, 27, 40, 8, 45, 85, 66, 20, 0)
s = 98: (0, 63, 129, 27, 20, 29, 6, 27, 63, 78, 14, 0)
s = 99: (0, 88, 78, 11, 20, 48, 9, 48, 60, 68, 11, 0)
s = 100: (0, 47, 154, 25, 11, 30, 10, 38, 98, 106, 29, 0)
s = 101: (0, 63, 161, 19, 27, 22, 11, 22, 85, 57, 15, 0)
s = 102: (0, 41, 150, 14, 21, 41, 6, 17, 71, 80, 12, 0)
s = 103: (0, 49, 155, 16, 26, 23, 5, 37, 50, 41, 13, 0)
s = 104: (0, 39, 100, 16, 17, 24, 7, 24, 124, 73, 16, 0)
s = 105: (0, 62, 114, 16, 16, 37, 10, 25, 47, 47, 15, 0)
s = 106: (0, 41, 91, 23, 19, 26, 7, 20, 113, 53, 13, 0)
s = 107: (0, 50, 169, 20, 15, 25, 8, 26, 103, 57, 19, 0)
s = 108: (0, 52, 166, 27, 11, 24, 16, 25, 64, 56, 12, 0)
s = 109: (0, 45, 206, 14, 17, 27, 7, 24, 55, 68, 22, 0)
s = 110: (0, 45, 77, 14, 18, 38, 11, 33, 49, 56, 13, 0)
s = 111: (0, 30, 106, 12, 12, 25, 9, 32, 88, 56, 10, 0)
s = 112: (0, 34, 140, 16, 11, 24, 7, 33, 89, 100, 9, 0)
s = 113: (0, 74, 122, 25, 13, 35, 12, 30, 58, 39, 13, 0)
s = 114: (0, 45, 128, 16, 25, 36, 13, 38, 115, 38, 17, 0)
s = 115: (0, 36, 75, 21, 27, 19, 6, 42, 100, 49, 21, 0)
s = 116: (0, 40, 137, 19, 17, 33, 18, 27, 73, 69, 22, 0)
s = 117: (0, 52, 116, 15, 13, 20, 8, 31, 135, 62, 22, 0)
s = 118: (0, 57, 119, 12, 18, 35, 12, 41, 90, 56, 11, 0)
s = 119: (0, 63, 108, 17, 15, 23, 7, 39, 108, 68, 22, 0)
s = 120: (0, 54, 137, 24, 11, 22, 13, 28, 97, 61, 14, 0)
s = 121: (0, 47, 120, 16, 23, 26, 7, 22, 74, 76, 17, 0)
s = 122: (0, 79, 125, 21, 25, 38, 15, 28, 56, 56, 18, 0)
s = 123: (0, 60, 159, 27, 22, 19, 9, 30, 93, 74, 13, 0)
s = 124: (0, 51, 106, 21, 27, 28, 9, 45, 100, 62, 15, 0)
s = 125: (0, 43, 105, 20, 22, 25, 6, 23, 111, 65, 16, 0)
s = 126: (0, 48, 126, 15, 35, 24, 10, 21, 88, 73, 13, 0)
s = 127: (0, 62, 194, 21, 14, 26, 8, 23, 45, 72, 15, 0)
s = 128: (0, 70, 162, 13, 13, 38, 7, 42, 57, 50, 10, 0)
s = 129: (0, 83, 238, 27, 15, 21, 7, 28, 85, 51, 20, 0)
s = 130: (0, 65, 135, 17, 17, 42, 9, 27, 55, 54, 13, 0)
s = 131: (0, 56, 131, 18, 14, 26, 13, 45, 77, 76, 18, 0)
s = 132: (0, 47, 125, 20, 11, 21, 7, 29, 89, 46, 17, 0)
s = 133: (0, 63, 106, 20, 24, 27, 9, 29, 130, 38, 32, 0)
s = 134: (0, 59, 169, 23, 21, 21, 7, 28, 152, 60, 15, 0)
s = 135: (0, 54, 200, 18, 19, 23, 8, 35, 70, 83, 11, 0)
s = 136: (0, 41, 91, 21, 26, 47, 11, 31, 64, 48, 13, 0)
s = 137: (0, 101, 92, 33, 25, 45, 8, 49, 74, 57, 20, 0)
s = 138: (0, 64, 139, 10, 18, 29, 8, 32, 86, 72, 11, 0)
s = 139: (0, 34, 200, 21, 21, 20, 11, 31, 50, 49, 10, 0)
s = 140: (0, 73, 104, 20, 28, 32, 8, 30, 62, 117, 21, 0)
s = 141: (0, 38, 121, 11, 16, 37, 7, 31, 94, 86, 18, 0)
s = 142: (0, 54, 163, 21, 22, 20, 9, 34, 83, 32, 14, 0)
s = 143: (0, 50, 151, 25, 16, 33, 7, 26, 62, 107, 16, 0)
s = 144: (0, 50, 189, 17, 18, 28, 10, 27, 53, 76, 11, 0)
s = 145: (0, 52, 169, 21, 17, 45, 8, 35, 53, 89, 23, 0)
s = 146: (0, 61, 210, 12, 13, 18, 7, 39, 76, 56, 14, 0)
s = 147: (0, 47, 129, 19, 28, 45, 9, 18, 114, 52, 22, 0)
s = 148: (0, 32, 135, 17, 17, 39, 14, 26, 137, 58, 16, 0)
s = 149: (0, 67, 134, 15, 22, 48, 12, 41, 111, 82, 26, 0)
s = 150: (0, 58, 105, 20, 17, 60, 9, 35, 89, 63, 12, 0)
s = 151: (0, 55, 148, 25, 18, 26, 15, 28, 70, 35, 18, 0)
s = 152: (0, 96, 94, 12, 18, 26, 11, 20, 88, 46, 15, 0)
s = 153: (0, 65, 105, 11, 11, 31, 9, 35, 53, 70, 13, 0)
s = 154: (0, 81, 109, 14, 17, 33, 12, 34, 102, 53, 15, 0)
s = 155: (0, 42, 126, 16, 20, 33, 12, 24, 77, 66, 17, 0)
s = 156: (0, 50, 93, 19, 24, 20, 10, 25, 61, 55, 19, 0)
s = 157: (0, 79, 129, 20, 23, 29, 9, 24, 99, 82, 13, 0)
s = 158: (0, 45, 79, 22, 30, 48, 6, 34, 77, 40, 14, 0)
s = 159: (0, 91, 82, 16, 23, 43, 14, 22, 122, 112, 22, 0)
s = 160: (0, 32, 88, 27, 18, 20, 9, 26, 55, 82, 14, 0)
s = 161: (0, 51, 136, 12, 21, 41, 9, 19, 45, 73, 17, 0)
s = 162: (0, 55, 94, 15, 15, 38, 12, 31, 55, 63, 13, 0)
s = 163: (0, 52, 126, 11, 19, 27, 8, 27, 88, 79, 15, 0)
s = 164: (0, 51, 215, 19, 24, 37, 13, 19, 84, 47, 14, 0)
s = 165: (0, 38, 245, 21, 22, 26, 16, 52, 93, 74, 20, 0)
s = 166: (0, 59, 109, 15, 20, 44, 9, 29, 68, 40, 16, 0)
s = 167: (0, 50, 105, 31, 14, 20, 8, 28, 94, 37, 10, 0)
s = 168: (0, 45, 183, 11, 26, 23, 6, 36, 71, 48, 11, 0)
s = 169: (0, 53, 134, 12, 20, 32, 10, 23, 76, 60, 15, 0)
s = 170: (0, 49, 150, 19, 25, 48, 8, 40, 85, 75, 13, 0)
s = 171: (0, 62, 185, 23, 13, 23, 13, 28, 109, 89, 18, 0)
s = 172: (0, 60, 81, 15, 16, 36, 8, 33, 85, 58, 17, 0)
s = 173: (0, 36, 131, 10, 18, 31, 8, 34, 73, 69, 12, 0)
s = 174: (0, 44, 83, 15, 36, 28, 9, 38, 87, 62, 14, 0)
s = 175: (0, 63, 183, 23, 22, 40, 7, 25, 77, 70, 9, 0)
s = 176: (0, 82, 110, 31, 25, 42, 6, 30, 68, 39, 24, 0)
s = 177: (0, 74, 118, 23, 13, 24, 10, 37, 101, 32, 18, 0)
s = 178: (0, 58, 135, 13, 26, 34, 11, 28, 94, 51, 12, 0)
s = 179: (0, 49, 94, 17, 18, 33, 9, 22, 134, 43, 23, 0)
s = 180: (0, 28, 209, 19, 18, 32, 9, 25, 83, 45, 17, 0)
s = 181: (0, 56, 128, 17, 15, 49, 12, 35, 105, 46, 10, 0)
s = 182: (0, 52, 84, 11, 16, 31, 15, 24, 67, 50, 18, 0)
s = 183: (0, 87, 188, 27, 13, 48, 13, 21, 71, 58, 15, 0)
s = 184: (0, 45, 101, 15, 17, 21, 10, 35, 62, 67, 14, 0)
s = 185: (0, 41, 131, 22, 24, 23, 7, 41, 116, 54, 23, 0)
s = 186: (0, 64, 197, 22, 19, 31, 6, 25, 75, 75, 19, 0)
s = 187: (0, 84, 77, 24, 32, 26, 10, 36, 104, 49, 11, 0)
s = 188: (0, 57, 108, 30, 23, 30, 9, 30, 113, 74, 11, 0)
s = 189: (0, 45, 130, 14, 29, 29, 9, 23, 75, 46, 14, 0)
s = 190: (0, 55, 109, 24, 16, 36, 6, 31, 101, 50, 22, 0)
s = 191: (0, 37, 117, 18, 22, 32, 9, 35, 58, 35, 16, 0)
s = 192: (0, 39, 152, 13, 26, 39, 9, 33, 87, 73, 12, 0)
s = 193: (0, 57, 154, 26, 22, 21, 7, 27, 93, 62, 16, 0)
s = 194: (0, 62, 105, 16, 22, 22, 7, 38, 124, 42, 20, 0)
s = 195: (0, 52, 105, 13, 19, 28, 7, 27, 92, 73, 23, 0)
s = 196: (0, 40, 146, 17, 11, 35, 9, 45, 75, 104, 18, 0)
s = 197: (0, 40, 205, 18, 14, 20, 16, 29, 110, 78, 12, 0)
s = 198: (0, 92, 90, 20, 19, 28, 8, 38, 79, 101, 19, 0)
s = 199: (0, 56, 138, 20, 20, 41, 9, 33, 69, 47, 18, 0)
s = 200: (0, 59, 160, 16, 17, 42, 10, 21, 71, 65, 20, 0)
------------------------------------------------------------------------
RESOURCE k = 2
s = 1: (0, 58, 125, 22, 18, 38, 12, 43, 80, 51, 13, 0)
s = 2: (0, 65, 106, 20, 32, 34, 17, 47, 49, 84, 6, 0)
s = 3: (0, 107, 73, 38, 17, 45, 13, 26, 118, 50, 8, 0)
s = 4: (0, 51, 173, 34, 20, 27, 8, 50, 83, 63, 7, 0)
s = 5: (0, 64, 91, 42, 24, 42, 15, 33, 90, 78, 8, 0)
s = 6: (0, 53, 59, 23, 30, 27, 9, 26, 89, 90, 8, 0)
s = 7: (0, 65, 89, 38, 45, 30, 11, 35, 78, 60, 8, 0)
s = 8: (0, 44, 100, 34, 21, 24, 15, 23, 46, 93, 10, 0)
s = 9: (0, 120, 91, 40, 26, 43, 11, 32, 48, 50, 10, 0)
s = 10: (0, 43, 156, 25, 19, 25, 8, 30, 160, 67, 9, 0)
s = 11: (0, 65, 115, 23, 17, 31, 20, 39, 75, 75, 8, 0)
s = 12: (0, 55, 133, 43, 29, 30, 15, 37, 53, 84, 11, 0)
s = 13: (0, 52, 90, 34, 28, 26, 17, 32, 65, 53, 10, 0)
s = 14: (0, 67, 98, 23, 33, 30, 7, 30, 47, 75, 14, 0)
s = 15: (0, 105, 95, 20, 15, 54, 17, 56, 146, 64, 6, 0)
s = 16: (0, 86, 125, 41, 32, 37, 7, 40, 148, 56, 7, 0)
s = 17: (0, 104, 111, 33, 32, 27, 13, 33, 54, 54, 6, 0)
s = 18: (0, 83, 90, 19, 16, 52, 13, 44, 130, 99, 14, 0)
s = 19: (0, 95, 132, 42, 36, 21, 14, 22, 71, 73, 8, 0)
s = 20: (0, 100, 105, 46, 23, 26, 12, 38, 49, 68, 6, 0)
s = 21: (0, 98, 55, 19, 18, 37, 12, 34, 63, 78, 7, 0)
s = 22: (0, 66, 88, 36, 43, 25, 16, 36, 99, 52, 10, 0)
s = 23: (0, 77, 91, 43, 39, 23, 14, 41, 82, 98, 9, 0)
s = 24: (0, 88, 76, 28, 27, 33, 19, 37, 54, 57, 9, 0)
s = 25: (0, 95, 91, 41, 32, 33, 9, 23, 69, 69, 8, 0)
s = 26: (0, 81, 74, 30, 43, 23, 14, 47, 66, 49, 7, 0)
s = 27: (0, 112, 155, 24, 19, 21, 8, 36, 72, 75, 5, 0)
s = 28: (0, 43, 83, 19, 30, 45, 9, 31, 75, 56, 10, 0)
s = 29: (0, 94, 199, 23, 30, 29, 12, 34, 59, 39, 11, 0)
s = 30: (0, 93, 111, 24, 36, 19, 10, 37, 75, 96, 10, 0)
s = 31: (0, 66, 77, 38, 29, 45, 10, 30, 70, 48, 8, 0)
s = 32: (0, 129, 74, 21, 29, 34, 8, 44, 50, 65, 7, 0)
s = 33: (0, 78, 91, 38, 28, 34, 10, 35, 62, 49, 10, 0)
s = 34: (0, 85, 57, 39, 24, 19, 9, 20, 94, 37, 5, 0)
s = 35: (0, 61, 74, 40, 23, 30, 12, 35, 75, 90, 17, 0)
s = 36: (0, 59, 146, 25, 26, 29, 21, 34, 62, 56, 10, 0)
s = 37: (0, 75, 173, 24, 20, 27, 10, 27, 78, 54, 6, 0)
s = 38: (0, 76, 92, 27, 22, 31, 18, 31, 59, 46, 14, 0)
s = 39: (0, 68, 129, 36, 34, 49, 13, 35, 75, 68, 10, 0)
s = 40: (0, 42, 140, 26, 25, 38, 16, 32, 101, 78, 10, 0)
s = 41: (0, 61, 67, 49, 25, 23, 8, 39, 72, 54, 15, 0)
s = 42: (0, 91, 163, 34, 32, 16, 8, 34, 67, 61, 14, 0)
s = 43: (0, 54, 75, 20, 28, 21, 15, 20, 117, 57, 10, 0)
s = 44: (0, 103, 64, 37, 15, 34, 17, 23, 80, 86, 9, 0)
s = 45: (0, 103, 95, 27, 27, 38, 9, 34, 66, 54, 8, 0)
s = 46: (0, 54, 92, 29, 22, 22, 15, 25, 125, 122, 9, 0)
s = 47: (0, 111, 130, 34, 38, 25, 17, 30, 92, 52, 8, 0)
s = 48: (0, 110, 147, 27, 29, 47, 12, 32, 57, 68, 9, 0)
s = 49: (0, 66, 116, 44, 29, 33, 14, 34, 82, 48, 11, 0)
s = 50: (0, 86, 67, 22, 33, 20, 14, 34, 103, 80, 8, 0)
s = 51: (0, 71, 124, 38, 34, 31, 14, 24, 72, 50, 13, 0)
s = 52: (0, 57, 82, 23, 34, 31, 13, 36, 66, 123, 10, 0)
s = 53: (0, 93, 115, 46, 21, 23, 7, 35, 60, 79, 7, 0)
s = 54: (0, 50, 97, 22, 21, 16, 9, 19, 97, 53, 11, 0)
s = 55: (0, 80, 59, 25, 38, 23, 7, 42, 61, 71, 6, 0)
s = 56: (0, 87, 120, 46, 32, 34, 12, 21, 105, 69, 17, 0)
s = 57: (0, 48, 66, 32, 16, 22, 8, 37, 118, 76, 6, 0)
s = 58: (0, 55, 121, 26, 22, 22, 12, 38, 67, 74, 9, 0)
s = 59: (0, 68, 142, 34, 16, 44, 8, 22, 75, 62, 7, 0)
s = 60: (0, 68, 70, 28, 25, 26, 8, 38, 54, 77, 10, 0)
s = 61: (0, 115, 78, 29, 28, 38, 9, 36, 49, 63, 13, 0)
s = 62: (0, 83, 148, 29, 25, 29, 8, 27, 129, 75, 7, 0)
s = 63: (0, 77, 84, 34, 17, 29, 8, 25, 89, 58, 6, 0)
s = 64: (0, 83, 76, 31, 23, 36, 15, 31, 92, 87, 12, 0)
s = 65: (0, 77, 115, 40, 27, 22, 16, 39, 68, 58, 11, 0)
s = 66: (0, 97, 127, 30, 20, 39, 8, 21, 73, 45, 10, 0)
s = 67: (0, 84, 101, 35, 19, 20, 14, 56, 69, 51, 13, 0)
s = 68: (0, 61, 127, 52, 19, 40, 9, 34, 117, 99, 9, 0)
s = 69: (0, 98, 123, 42, 21, 39, 10, 25, 87, 77, 12, 0)
s = 70: (0, 56, 91, 29, 30, 39, 15, 29, 133, 62, 10, 0)
s = 71: (0, 51, 184, 37, 18, 19, 10, 49, 59, 45, 14, 0)
s = 72: (0, 82, 81, 60, 47, 21, 12, 30, 92, 35, 16, 0)
s = 73: (0, 46, 90, 26, 20, 24, 10, 22, 76, 83, 7, 0)
s = 74: (0, 105, 113, 22, 19, 30, 14, 24, 107, 45, 15, 0)
s = 75: (0, 61, 67, 41, 18, 27, 13, 29, 65, 83, 10, 0)
s = 76: (0, 120, 110, 49, 29, 37, 11, 46, 99, 61, 10, 0)
s = 77: (0, 56, 64, 51, 24, 19, 9, 41, 71, 66, 6, 0)
s = 78: (0, 63, 144, 30, 23, 41, 8, 44, 91, 87, 11, 0)
s = 79: (0, 80, 98, 38, 19, 40, 9, 21, 66, 74, 15, 0)
s = 80: (0, 81, 106, 22, 35, 43, 12, 26, 129, 55, 7, 0)
s = 81: (0, 79, 88, 20, 28, 28, 11, 28, 48, 76, 8, 0)
s = 82: (0, 84, 76, 30, 26, 41, 7, 30, 88, 70, 13, 0)
s = 83: (0, 54, 116, 48, 29, 22, 11, 31, 116, 84, 8, 0)
s = 84: (0, 87, 81, 29, 18, 39, 9, 48, 98, 98, 8, 0)
s = 85: (0, 56, 153, 19, 21, 34, 11, 28, 66, 43, 14, 0)
s = 86: (0, 57, 70, 20, 38, 33, 8, 24, 82, 63, 7, 0)
s = 87: (0, 86, 104, 42, 14, 45, 10, 30, 103, 49, 8, 0)
s = 88: (0, 48, 109, 31, 21, 34, 14, 41, 52, 44, 10, 0)
s = 89: (0, 67, 140, 30, 24, 53, 13, 30, 109, 58, 8, 0)
s = 90: (0, 58, 127, 27, 39, 37, 10, 42, 51, 61, 12, 0)
s = 91: (0, 85, 118, 30, 22, 47, 17, 40, 66, 43, 9, 0)
s = 92: (0, 75, 144, 47, 36, 22, 11, 20, 79, 35, 9, 0)
s = 93: (0, 67, 145, 20, 27, 23, 7, 34, 100, 78, 7, 0)
s = 94: (0, 74, 111, 43, 26, 35, 9, 21, 82, 77, 6, 0)
s = 95: (0, 52, 123, 39, 20, 19, 13, 39, 103, 46, 13, 0)
s = 96: (0, 83, 132, 36, 48, 28, 8, 47, 60, 53, 7, 0)
s = 97: (0, 88, 137, 40, 35, 38, 10, 51, 85, 71, 11, 0)
s = 98: (0, 85, 103, 48, 26, 27, 7, 31, 63, 83, 8, 0)
s = 99: (0, 120, 63, 19, 26, 45, 11, 54, 60, 72, 6, 0)
s = 100: (0, 64, 123, 45, 15, 28, 12, 42, 98, 113, 17, 0)
s = 101: (0, 86, 129, 33, 35, 20, 14, 25, 85, 61, 9, 0)
s = 102: (0, 56, 120, 25, 27, 38, 7, 19, 71, 86, 7, 0)
s = 103: (0, 66, 124, 29, 33, 22, 6, 42, 50, 43, 8, 0)
s = 104: (0, 53, 80, 27, 22, 23, 8, 28, 124, 78, 9, 0)
s = 105: (0, 84, 91, 29, 20, 35, 12, 29, 47, 50, 9, 0)
s = 106: (0, 56, 73, 41, 24, 24, 8, 22, 113, 57, 8, 0)
s = 107: (0, 68, 135, 36, 20, 24, 10, 30, 103, 61, 11, 0)
s = 108: (0, 70, 133, 48, 14, 22, 19, 28, 64, 59, 7, 0)
s = 109: (0, 61, 165, 25, 21, 25, 8, 27, 55, 73, 12, 0)
s = 110: (0, 61, 62, 25, 23, 36, 13, 37, 49, 60, 7, 0)
s = 111: (0, 41, 85, 21, 16, 24, 11, 36, 88, 60, 6, 0)
s = 112: (0, 47, 112, 28, 15, 23, 8, 37, 89, 107, 6, 0)
s = 113: (0, 101, 98, 45, 16, 33, 14, 34, 58, 41, 8, 0)
s = 114: (0, 61, 103, 29, 33, 34, 16, 43, 115, 40, 10, 0)
s = 115: (0, 50, 60, 36, 34, 18, 8, 48, 100, 53, 12, 0)
s = 116: (0, 55, 110, 33, 22, 31, 22, 31, 73, 74, 12, 0)
s = 117: (0, 71, 93, 26, 17, 19, 9, 35, 135, 67, 12, 0)
s = 118: (0, 77, 96, 21, 23, 33, 15, 47, 90, 60, 6, 0)
s = 119: (0, 86, 86, 29, 19, 21, 9, 44, 108, 73, 13, 0)
s = 120: (0, 74, 110, 43, 14, 21, 15, 31, 97, 65, 8, 0)
s = 121: (0, 64, 96, 27, 29, 25, 8, 25, 74, 81, 10, 0)
s = 122: (0, 107, 100, 37, 33, 35, 18, 32, 56, 60, 11, 0)
s = 123: (0, 81, 127, 47, 28, 18, 11, 34, 93, 78, 7, 0)
s = 124: (0, 69, 85, 37, 35, 26, 10, 51, 100, 66, 9, 0)
s = 125: (0, 58, 84, 34, 28, 23, 7, 25, 111, 69, 9, 0)
s = 126: (0, 65, 101, 27, 45, 23, 13, 24, 88, 77, 8, 0)
s = 127: (0, 85, 155, 37, 17, 25, 10, 26, 45, 77, 9, 0)
s = 128: (0, 96, 130, 23, 17, 36, 9, 47, 57, 53, 6, 0)
s = 129: (0, 113, 190, 47, 19, 20, 9, 32, 85, 55, 11, 0)
s = 130: (0, 88, 108, 30, 22, 39, 10, 30, 55, 57, 7, 0)
s = 131: (0, 76, 105, 31, 19, 25, 16, 50, 77, 81, 10, 0)
s = 132: (0, 63, 100, 36, 14, 19, 9, 33, 89, 49, 10, 0)
s = 133: (0, 85, 85, 34, 31, 25, 11, 33, 130, 41, 18, 0)
s = 134: (0, 81, 135, 40, 27, 20, 8, 31, 152, 64, 9, 0)
s = 135: (0, 73, 160, 32, 25, 22, 10, 40, 70, 89, 6, 0)
s = 136: (0, 56, 73, 37, 33, 44, 14, 35, 64, 51, 7, 0)
s = 137: (0, 137, 74, 58, 33, 42, 10, 56, 74, 61, 11, 0)
s = 138: (0, 88, 111, 18, 23, 27, 10, 36, 86, 77, 6, 0)
s = 139: (0, 47, 160, 36, 28, 19, 13, 35, 50, 52, 6, 0)
s = 140: (0, 99, 84, 36, 36, 30, 9, 33, 62, 124, 12, 0)
s = 141: (0, 52, 97, 20, 21, 34, 8, 35, 94, 92, 10, 0)
s = 142: (0, 73, 130, 38, 29, 19, 11, 39, 83, 34, 8, 0)
s = 143: (0, 68, 121, 44, 20, 31, 8, 29, 62, 114, 9, 0)
s = 144: (0, 68, 151, 30, 24, 26, 13, 30, 53, 81, 6, 0)
s = 145: (0, 71, 135, 36, 21, 42, 9, 40, 53, 95, 13, 0)
s = 146: (0, 83, 168, 21, 16, 17, 9, 44, 76, 60, 8, 0)
s = 147: (0, 64, 103, 33, 36, 42, 11, 20, 114, 56, 13, 0)
s = 148: (0, 43, 108, 31, 22, 36, 16, 29, 137, 61, 9, 0)
s = 149: (0, 91, 107, 27, 29, 45, 14, 46, 111, 87, 15, 0)
s = 150: (0, 79, 84, 35, 22, 56, 10, 40, 89, 67, 7, 0)
s = 151: (0, 74, 118, 45, 23, 25, 18, 31, 70, 38, 11, 0)
s = 152: (0, 131, 75, 22, 23, 24, 13, 22, 88, 49, 9, 0)
s = 153: (0, 89, 84, 19, 14, 29, 11, 40, 53, 75, 8, 0)
s = 154: (0, 110, 88, 25, 22, 31, 15, 39, 102, 56, 9, 0)
s = 155: (0, 57, 101, 28, 26, 31, 15, 27, 77, 70, 10, 0)
s = 156: (0, 69, 74, 34, 31, 19, 12, 28, 61, 58, 11, 0)
s = 157: (0, 108, 103, 36, 30, 27, 10, 27, 99, 88, 7, 0)
s = 158: (0, 62, 64, 39, 39, 45, 7, 38, 77, 43, 8, 0)
s = 159: (0, 124, 66, 28, 30, 40, 17, 25, 122, 119, 13, 0)
s = 160: (0, 44, 70, 47, 24, 19, 11, 30, 55, 88, 8, 0)
s = 161: (0, 69, 109, 21, 27, 39, 10, 21, 45, 78, 10, 0)
s = 162: (0, 75, 75, 26, 19, 36, 15, 35, 55, 67, 7, 0)
s = 163: (0, 71, 101, 19, 25, 25, 9, 31, 88, 84, 8, 0)
s = 164: (0, 70, 172, 33, 31, 34, 16, 21, 84, 50, 8, 0)
s = 165: (0, 52, 196, 37, 29, 24, 20, 58, 93, 79, 11, 0)
s = 166: (0, 80, 88, 27, 25, 42, 11, 32, 68, 43, 9, 0)
s = 167: (0, 68, 84, 55, 18, 19, 10, 31, 94, 39, 6, 0)
s = 168: (0, 61, 146, 20, 34, 21, 8, 40, 71, 52, 6, 0)
s = 169: (0, 72, 108, 21, 25, 30, 12, 26, 76, 64, 8, 0)
s = 170: (0, 67, 120, 33, 33, 45, 10, 45, 85, 80, 7, 0)
s = 171: (0, 84, 148, 40, 17, 21, 15, 32, 109, 95, 10, 0)
s = 172: (0, 82, 65, 27, 21, 34, 10, 37, 85, 62, 10, 0)
s = 173: (0, 49, 105, 18, 24, 29, 9, 39, 73, 74, 7, 0)
s = 174: (0, 60, 67, 27, 47, 26, 11, 43, 87, 66, 8, 0)
s = 175: (0, 86, 147, 41, 28, 38, 8, 29, 77, 75, 5, 0)
s = 176: (0, 112, 88, 54, 33, 40, 7, 34, 68, 42, 14, 0)
s = 177: (0, 101, 95, 41, 16, 23, 12, 42, 101, 34, 10, 0)
s = 178: (0, 79, 108, 22, 34, 32, 14, 32, 94, 54, 7, 0)
s = 179: (0, 67, 75, 29, 23, 31, 11, 25, 134, 46, 13, 0)
s = 180: (0, 39, 167, 34, 23, 30, 11, 28, 83, 48, 10, 0)
s = 181: (0, 77, 102, 29, 20, 46, 15, 40, 105, 49, 6, 0)
s = 182: (0, 70, 67, 20, 20, 29, 18, 27, 67, 54, 10, 0)
s = 183: (0, 119, 150, 47, 17, 45, 15, 23, 71, 62, 9, 0)
s = 184: (0, 61, 81, 27, 22, 20, 12, 39, 62, 71, 8, 0)
s = 185: (0, 55, 105, 39, 31, 21, 9, 47, 116, 58, 13, 0)
s = 186: (0, 87, 158, 39, 24, 29, 8, 28, 75, 80, 11, 0)
s = 187: (0, 115, 61, 42, 41, 24, 13, 41, 104, 52, 6, 0)
s = 188: (0, 77, 86, 53, 30, 29, 11, 34, 113, 79, 7, 0)
s = 189: (0, 61, 104, 25, 38, 27, 11, 26, 75, 49, 8, 0)
s = 190: (0, 75, 87, 43, 20, 34, 7, 35, 101, 53, 13, 0)
s = 191: (0, 50, 93, 31, 28, 30, 11, 40, 58, 38, 9, 0)
s = 192: (0, 53, 122, 23, 34, 37, 11, 38, 87, 78, 7, 0)
s = 193: (0, 78, 123, 45, 29, 20, 8, 30, 93, 66, 9, 0)
s = 194: (0, 84, 84, 28, 29, 20, 9, 43, 124, 45, 11, 0)
s = 195: (0, 71, 84, 22, 24, 26, 8, 31, 92, 78, 13, 0)
s = 196: (0, 54, 117, 29, 14, 33, 11, 51, 75, 111, 10, 0)
s = 197: (0, 55, 164, 32, 18, 19, 19, 33, 110, 83, 7, 0)
s = 198: (0, 125, 72, 35, 24, 26, 10, 43, 79, 107, 11, 0)
s = 199: (0, 76, 110, 35, 25, 38, 11, 37, 69, 50, 10, 0)
s = 200: (0, 80, 128, 29, 22, 39, 12, 24, 71, 70, 11, 0)
************************************************************************
ES/LS-VALUES:
jobnr.   ES(i)    LS(i)
------------------------------------------------------------------------
  0        0        0
  1        0       54
  2        0       51
  3        0       72
  4       16       78
  5        9       64
  6       16       68
  7       16       78
  8       18       70
  9       18       76
 10       19       82
 11       31       84
************************************************************************
BIG-M-VALUES:
M1 = 60, M2 = 447
************************************************************************
